\-------------
\Objective:
\-------------
Minimize
1.5555555555555554 L_4 + 1.5555555555555554 L_5 + 1.5555555555555554 L_6 + 1.5555555555555554 L_7 + 0.1 d_1 + 0.1 d_2 + 0.1 d_3
\-------------
\Constraints:
\-------------
Subject To
a_0_1 + a_1_1 + a_2_1 + a_3_1 - d_1 = 0
b_1 >= 0
b_1 - d_1 <= 0
a_0_2 + a_1_2 + a_2_2 + a_3_2 - d_2 = 0
b_2 >= 0
b_2 - d_2 <= 0
d_2 - d_1 <= 0
a_0_3 + a_1_3 + a_2_3 + a_3_3 - d_3 = 0
b_3 >= 0
b_3 - d_3 <= 0
d_3 - d_1 <= 0
z_0_4 - l_4 <= 0
z_1_4 - l_4 <= 0
z_2_4 - l_4 <= 0
z_3_4 - l_4 <= 0
z_4_4 - l_4 <= 0
z_5_4 - l_4 <= 0
z_6_4 - l_4 <= 0
z_7_4 - l_4 <= 0
z_8_4 - l_4 <= 0
z_9_4 - l_4 <= 0
z_10_4 - l_4 <= 0
z_11_4 - l_4 <= 0
z_12_4 - l_4 <= 0
z_13_4 - l_4 <= 0
z_0_4 + z_1_4 + z_2_4 + z_3_4 + z_4_4 + z_5_4 + z_6_4 + z_7_4 + z_8_4 + z_9_4 + z_10_4 + z_11_4 + z_12_4 + z_13_4 - 1 l_4 >= 0
z_0_5 - l_5 <= 0
z_1_5 - l_5 <= 0
z_2_5 - l_5 <= 0
z_3_5 - l_5 <= 0
z_4_5 - l_5 <= 0
z_5_5 - l_5 <= 0
z_6_5 - l_5 <= 0
z_7_5 - l_5 <= 0
z_8_5 - l_5 <= 0
z_9_5 - l_5 <= 0
z_10_5 - l_5 <= 0
z_11_5 - l_5 <= 0
z_12_5 - l_5 <= 0
z_13_5 - l_5 <= 0
z_0_5 + z_1_5 + z_2_5 + z_3_5 + z_4_5 + z_5_5 + z_6_5 + z_7_5 + z_8_5 + z_9_5 + z_10_5 + z_11_5 + z_12_5 + z_13_5 - 1 l_5 >= 0
z_0_6 - l_6 <= 0
z_1_6 - l_6 <= 0
z_2_6 - l_6 <= 0
z_3_6 - l_6 <= 0
z_4_6 - l_6 <= 0
z_5_6 - l_6 <= 0
z_6_6 - l_6 <= 0
z_7_6 - l_6 <= 0
z_8_6 - l_6 <= 0
z_9_6 - l_6 <= 0
z_10_6 - l_6 <= 0
z_11_6 - l_6 <= 0
z_12_6 - l_6 <= 0
z_13_6 - l_6 <= 0
z_0_6 + z_1_6 + z_2_6 + z_3_6 + z_4_6 + z_5_6 + z_6_6 + z_7_6 + z_8_6 + z_9_6 + z_10_6 + z_11_6 + z_12_6 + z_13_6 - 1 l_6 >= 0
z_0_7 - l_7 <= 0
z_1_7 - l_7 <= 0
z_2_7 - l_7 <= 0
z_3_7 - l_7 <= 0
z_4_7 - l_7 <= 0
z_5_7 - l_7 <= 0
z_6_7 - l_7 <= 0
z_7_7 - l_7 <= 0
z_8_7 - l_7 <= 0
z_9_7 - l_7 <= 0
z_10_7 - l_7 <= 0
z_11_7 - l_7 <= 0
z_12_7 - l_7 <= 0
z_13_7 - l_7 <= 0
z_0_7 + z_1_7 + z_2_7 + z_3_7 + z_4_7 + z_5_7 + z_6_7 + z_7_7 + z_8_7 + z_9_7 + z_10_7 + z_11_7 + z_12_7 + z_13_7 - 1 l_7 >= 0
z_0_4 + z_0_5 + z_0_6 + z_0_7 = 1
z_1_4 + z_1_5 + z_1_6 + z_1_7 = 1
z_2_4 + z_2_5 + z_2_6 + z_2_7 = 1
z_3_4 + z_3_5 + z_3_6 + z_3_7 = 1
z_4_4 + z_4_5 + z_4_6 + z_4_7 = 1
z_5_4 + z_5_5 + z_5_6 + z_5_7 = 1
z_6_4 + z_6_5 + z_6_6 + z_6_7 = 1
z_7_4 + z_7_5 + z_7_6 + z_7_7 = 1
z_8_4 + z_8_5 + z_8_6 + z_8_7 = 1
z_9_4 + z_9_5 + z_9_6 + z_9_7 = 1
z_10_4 + z_10_5 + z_10_6 + z_10_7 = 1
z_11_4 + z_11_5 + z_11_6 + z_11_7 = 1
z_12_4 + z_12_5 + z_12_6 + z_12_7 = 1
z_13_4 + z_13_5 + z_13_6 + z_13_7 = 1
0.0 a_0_2 + 0.0 a_0_1 + 0.0 a_1_2 + 0.0 a_1_1 + 0.0 a_2_2 + 0.0 a_2_1 + 0.0 a_3_2 + 0.0 a_3_1 - b_1 +2.0 z_0_4 <= 1.0
0.0 a_0_2 + 0.0 a_0_1 + 0.0 a_1_2 + 0.0 a_1_1 + 0.0 a_2_2 + 0.0 a_2_1 + 1.0 a_3_2 + 1.0 a_3_1 - b_1 +2.0 z_1_4 <= 1.0
0.5 a_0_2 + 0.5 a_0_1 + 0.0 a_1_2 + 0.0 a_1_1 + 0.0 a_2_2 + 0.0 a_2_1 + 0.0 a_3_2 + 0.0 a_3_1 - b_1 +2.0 z_2_4 <= 1.0
1.0 a_0_2 + 1.0 a_0_1 + 0.5 a_1_2 + 0.5 a_1_1 + 0.0 a_2_2 + 0.0 a_2_1 + 0.0 a_3_2 + 0.0 a_3_1 - b_1 +2.0 z_3_4 <= 1.0
1.0 a_0_2 + 1.0 a_0_1 + 1.0 a_1_2 + 1.0 a_1_1 + 1.0 a_2_2 + 1.0 a_2_1 + 0.0 a_3_2 + 0.0 a_3_1 - b_1 +2.0 z_4_4 <= 1.0
1.0 a_0_2 + 1.0 a_0_1 + 1.0 a_1_2 + 1.0 a_1_1 + 1.0 a_2_2 + 1.0 a_2_1 + 1.0 a_3_2 + 1.0 a_3_1 - b_1 +2.0 z_5_4 <= 1.0
0.5 a_0_2 + 0.5 a_0_1 + 1.0 a_1_2 + 1.0 a_1_1 + 1.0 a_2_2 + 1.0 a_2_1 + 1.0 a_3_2 + 1.0 a_3_1 - b_1 +2.0 z_6_4 <= 1.0
0.0 a_0_2 + 0.0 a_0_1 + 0.5 a_1_2 + 0.5 a_1_1 + 0.0 a_2_2 + 0.0 a_2_1 + 0.0 a_3_2 + 0.0 a_3_1 - b_1 +2.0 z_7_4 <= 1.0
0.0 a_0_2 + 0.0 a_0_1 + 1.0 a_1_2 + 1.0 a_1_1 + 1.0 a_2_2 + 1.0 a_2_1 + 0.0 a_3_2 + 0.0 a_3_1 - b_1 +2.0 z_8_4 <= 1.0
1.0 a_0_2 + 1.0 a_0_1 + 0.5 a_1_2 + 0.5 a_1_1 + 1.0 a_2_2 + 1.0 a_2_1 + 0.0 a_3_2 + 0.0 a_3_1 - b_1 +2.0 z_9_4 <= 1.0
0.0 a_0_2 + 0.0 a_0_1 + 0.5 a_1_2 + 0.5 a_1_1 + 1.0 a_2_2 + 1.0 a_2_1 + 1.0 a_3_2 + 1.0 a_3_1 - b_1 +2.0 z_10_4 <= 1.0
0.5 a_0_2 + 0.5 a_0_1 + 0.5 a_1_2 + 0.5 a_1_1 + 0.0 a_2_2 + 0.0 a_2_1 + 1.0 a_3_2 + 1.0 a_3_1 - b_1 +2.0 z_11_4 <= 1.0
0.5 a_0_2 + 0.5 a_0_1 + 0.0 a_1_2 + 0.0 a_1_1 + 1.0 a_2_2 + 1.0 a_2_1 + 0.0 a_3_2 + 0.0 a_3_1 - b_1 +2.0 z_12_4 <= 1.0
1.0 a_0_2 + 1.0 a_0_1 + 0.5 a_1_2 + 0.5 a_1_1 + 0.0 a_2_2 + 0.0 a_2_1 + 1.0 a_3_2 + 1.0 a_3_1 - b_1 +2.0 z_13_4 <= 1.0
0.0 a_0_1 + 0.0 a_1_1 + 0.0 a_2_1 + 0.0 a_3_1 - b_2 + 2.0 z_0_5 <= 1.0
0.0 a_0_2 + 0.0 a_1_2 + 0.0 a_2_2 + 0.0 a_3_2 - b_2 - z_0_5 >= -1
0.0 a_0_1 + 0.0 a_1_1 + 0.0 a_2_1 + 1.0 a_3_1 - b_2 + 2.0 z_1_5 <= 1.0
0.0 a_0_2 + 0.0 a_1_2 + 0.0 a_2_2 + 1.0 a_3_2 - b_2 - z_1_5 >= -1
0.5 a_0_1 + 0.0 a_1_1 + 0.0 a_2_1 + 0.0 a_3_1 - b_2 + 2.0 z_2_5 <= 1.0
0.5 a_0_2 + 0.0 a_1_2 + 0.0 a_2_2 + 0.0 a_3_2 - b_2 - z_2_5 >= -1
1.0 a_0_1 + 0.5 a_1_1 + 0.0 a_2_1 + 0.0 a_3_1 - b_2 + 2.0 z_3_5 <= 1.0
1.0 a_0_2 + 0.5 a_1_2 + 0.0 a_2_2 + 0.0 a_3_2 - b_2 - z_3_5 >= -1
1.0 a_0_1 + 1.0 a_1_1 + 1.0 a_2_1 + 0.0 a_3_1 - b_2 + 2.0 z_4_5 <= 1.0
1.0 a_0_2 + 1.0 a_1_2 + 1.0 a_2_2 + 0.0 a_3_2 - b_2 - z_4_5 >= -1
1.0 a_0_1 + 1.0 a_1_1 + 1.0 a_2_1 + 1.0 a_3_1 - b_2 + 2.0 z_5_5 <= 1.0
1.0 a_0_2 + 1.0 a_1_2 + 1.0 a_2_2 + 1.0 a_3_2 - b_2 - z_5_5 >= -1
0.5 a_0_1 + 1.0 a_1_1 + 1.0 a_2_1 + 1.0 a_3_1 - b_2 + 2.0 z_6_5 <= 1.0
0.5 a_0_2 + 1.0 a_1_2 + 1.0 a_2_2 + 1.0 a_3_2 - b_2 - z_6_5 >= -1
0.0 a_0_1 + 0.5 a_1_1 + 0.0 a_2_1 + 0.0 a_3_1 - b_2 + 2.0 z_7_5 <= 1.0
0.0 a_0_2 + 0.5 a_1_2 + 0.0 a_2_2 + 0.0 a_3_2 - b_2 - z_7_5 >= -1
0.0 a_0_1 + 1.0 a_1_1 + 1.0 a_2_1 + 0.0 a_3_1 - b_2 + 2.0 z_8_5 <= 1.0
0.0 a_0_2 + 1.0 a_1_2 + 1.0 a_2_2 + 0.0 a_3_2 - b_2 - z_8_5 >= -1
1.0 a_0_1 + 0.5 a_1_1 + 1.0 a_2_1 + 0.0 a_3_1 - b_2 + 2.0 z_9_5 <= 1.0
1.0 a_0_2 + 0.5 a_1_2 + 1.0 a_2_2 + 0.0 a_3_2 - b_2 - z_9_5 >= -1
0.0 a_0_1 + 0.5 a_1_1 + 1.0 a_2_1 + 1.0 a_3_1 - b_2 + 2.0 z_10_5 <= 1.0
0.0 a_0_2 + 0.5 a_1_2 + 1.0 a_2_2 + 1.0 a_3_2 - b_2 - z_10_5 >= -1
0.5 a_0_1 + 0.5 a_1_1 + 0.0 a_2_1 + 1.0 a_3_1 - b_2 + 2.0 z_11_5 <= 1.0
0.5 a_0_2 + 0.5 a_1_2 + 0.0 a_2_2 + 1.0 a_3_2 - b_2 - z_11_5 >= -1
0.5 a_0_1 + 0.0 a_1_1 + 1.0 a_2_1 + 0.0 a_3_1 - b_2 + 2.0 z_12_5 <= 1.0
0.5 a_0_2 + 0.0 a_1_2 + 1.0 a_2_2 + 0.0 a_3_2 - b_2 - z_12_5 >= -1
1.0 a_0_1 + 0.5 a_1_1 + 0.0 a_2_1 + 1.0 a_3_1 - b_2 + 2.0 z_13_5 <= 1.0
1.0 a_0_2 + 0.5 a_1_2 + 0.0 a_2_2 + 1.0 a_3_2 - b_2 - z_13_5 >= -1
0.0 a_0_3 + 0.0 a_1_3 + 0.0 a_2_3 + 0.0 a_3_3 - b_1 + 2.0 z_0_6 <= 1.0
0.0 a_0_1 + 0.0 a_1_1 + 0.0 a_2_1 + 0.0 a_3_1 - b_1 - z_0_6 >= -1
0.0 a_0_3 + 0.0 a_1_3 + 0.0 a_2_3 + 1.0 a_3_3 - b_1 + 2.0 z_1_6 <= 1.0
0.0 a_0_1 + 0.0 a_1_1 + 0.0 a_2_1 + 1.0 a_3_1 - b_1 - z_1_6 >= -1
0.5 a_0_3 + 0.0 a_1_3 + 0.0 a_2_3 + 0.0 a_3_3 - b_1 + 2.0 z_2_6 <= 1.0
0.5 a_0_1 + 0.0 a_1_1 + 0.0 a_2_1 + 0.0 a_3_1 - b_1 - z_2_6 >= -1
1.0 a_0_3 + 0.5 a_1_3 + 0.0 a_2_3 + 0.0 a_3_3 - b_1 + 2.0 z_3_6 <= 1.0
1.0 a_0_1 + 0.5 a_1_1 + 0.0 a_2_1 + 0.0 a_3_1 - b_1 - z_3_6 >= -1
1.0 a_0_3 + 1.0 a_1_3 + 1.0 a_2_3 + 0.0 a_3_3 - b_1 + 2.0 z_4_6 <= 1.0
1.0 a_0_1 + 1.0 a_1_1 + 1.0 a_2_1 + 0.0 a_3_1 - b_1 - z_4_6 >= -1
1.0 a_0_3 + 1.0 a_1_3 + 1.0 a_2_3 + 1.0 a_3_3 - b_1 + 2.0 z_5_6 <= 1.0
1.0 a_0_1 + 1.0 a_1_1 + 1.0 a_2_1 + 1.0 a_3_1 - b_1 - z_5_6 >= -1
0.5 a_0_3 + 1.0 a_1_3 + 1.0 a_2_3 + 1.0 a_3_3 - b_1 + 2.0 z_6_6 <= 1.0
0.5 a_0_1 + 1.0 a_1_1 + 1.0 a_2_1 + 1.0 a_3_1 - b_1 - z_6_6 >= -1
0.0 a_0_3 + 0.5 a_1_3 + 0.0 a_2_3 + 0.0 a_3_3 - b_1 + 2.0 z_7_6 <= 1.0
0.0 a_0_1 + 0.5 a_1_1 + 0.0 a_2_1 + 0.0 a_3_1 - b_1 - z_7_6 >= -1
0.0 a_0_3 + 1.0 a_1_3 + 1.0 a_2_3 + 0.0 a_3_3 - b_1 + 2.0 z_8_6 <= 1.0
0.0 a_0_1 + 1.0 a_1_1 + 1.0 a_2_1 + 0.0 a_3_1 - b_1 - z_8_6 >= -1
1.0 a_0_3 + 0.5 a_1_3 + 1.0 a_2_3 + 0.0 a_3_3 - b_1 + 2.0 z_9_6 <= 1.0
1.0 a_0_1 + 0.5 a_1_1 + 1.0 a_2_1 + 0.0 a_3_1 - b_1 - z_9_6 >= -1
0.0 a_0_3 + 0.5 a_1_3 + 1.0 a_2_3 + 1.0 a_3_3 - b_1 + 2.0 z_10_6 <= 1.0
0.0 a_0_1 + 0.5 a_1_1 + 1.0 a_2_1 + 1.0 a_3_1 - b_1 - z_10_6 >= -1
0.5 a_0_3 + 0.5 a_1_3 + 0.0 a_2_3 + 1.0 a_3_3 - b_1 + 2.0 z_11_6 <= 1.0
0.5 a_0_1 + 0.5 a_1_1 + 0.0 a_2_1 + 1.0 a_3_1 - b_1 - z_11_6 >= -1
0.5 a_0_3 + 0.0 a_1_3 + 1.0 a_2_3 + 0.0 a_3_3 - b_1 + 2.0 z_12_6 <= 1.0
0.5 a_0_1 + 0.0 a_1_1 + 1.0 a_2_1 + 0.0 a_3_1 - b_1 - z_12_6 >= -1
1.0 a_0_3 + 0.5 a_1_3 + 0.0 a_2_3 + 1.0 a_3_3 - b_1 + 2.0 z_13_6 <= 1.0
1.0 a_0_1 + 0.5 a_1_1 + 0.0 a_2_1 + 1.0 a_3_1 - b_1 - z_13_6 >= -1
0.0 a_0_3 + 0.0 a_0_1 + 0.0 a_1_3 + 0.0 a_1_1 + 0.0 a_2_3 + 0.0 a_2_1 + 0.0 a_3_3 + 0.0 a_3_1 - b_1 -z_0_7 >= -1
0.0 a_0_3 + 0.0 a_0_1 + 0.0 a_1_3 + 0.0 a_1_1 + 0.0 a_2_3 + 0.0 a_2_1 + 1.0 a_3_3 + 1.0 a_3_1 - b_1 -z_1_7 >= -1
0.5 a_0_3 + 0.5 a_0_1 + 0.0 a_1_3 + 0.0 a_1_1 + 0.0 a_2_3 + 0.0 a_2_1 + 0.0 a_3_3 + 0.0 a_3_1 - b_1 -z_2_7 >= -1
1.0 a_0_3 + 1.0 a_0_1 + 0.5 a_1_3 + 0.5 a_1_1 + 0.0 a_2_3 + 0.0 a_2_1 + 0.0 a_3_3 + 0.0 a_3_1 - b_1 -z_3_7 >= -1
1.0 a_0_3 + 1.0 a_0_1 + 1.0 a_1_3 + 1.0 a_1_1 + 1.0 a_2_3 + 1.0 a_2_1 + 0.0 a_3_3 + 0.0 a_3_1 - b_1 -z_4_7 >= -1
1.0 a_0_3 + 1.0 a_0_1 + 1.0 a_1_3 + 1.0 a_1_1 + 1.0 a_2_3 + 1.0 a_2_1 + 1.0 a_3_3 + 1.0 a_3_1 - b_1 -z_5_7 >= -1
0.5 a_0_3 + 0.5 a_0_1 + 1.0 a_1_3 + 1.0 a_1_1 + 1.0 a_2_3 + 1.0 a_2_1 + 1.0 a_3_3 + 1.0 a_3_1 - b_1 -z_6_7 >= -1
0.0 a_0_3 + 0.0 a_0_1 + 0.5 a_1_3 + 0.5 a_1_1 + 0.0 a_2_3 + 0.0 a_2_1 + 0.0 a_3_3 + 0.0 a_3_1 - b_1 -z_7_7 >= -1
0.0 a_0_3 + 0.0 a_0_1 + 1.0 a_1_3 + 1.0 a_1_1 + 1.0 a_2_3 + 1.0 a_2_1 + 0.0 a_3_3 + 0.0 a_3_1 - b_1 -z_8_7 >= -1
1.0 a_0_3 + 1.0 a_0_1 + 0.5 a_1_3 + 0.5 a_1_1 + 1.0 a_2_3 + 1.0 a_2_1 + 0.0 a_3_3 + 0.0 a_3_1 - b_1 -z_9_7 >= -1
0.0 a_0_3 + 0.0 a_0_1 + 0.5 a_1_3 + 0.5 a_1_1 + 1.0 a_2_3 + 1.0 a_2_1 + 1.0 a_3_3 + 1.0 a_3_1 - b_1 -z_10_7 >= -1
0.5 a_0_3 + 0.5 a_0_1 + 0.5 a_1_3 + 0.5 a_1_1 + 0.0 a_2_3 + 0.0 a_2_1 + 1.0 a_3_3 + 1.0 a_3_1 - b_1 -z_11_7 >= -1
0.5 a_0_3 + 0.5 a_0_1 + 0.0 a_1_3 + 0.0 a_1_1 + 1.0 a_2_3 + 1.0 a_2_1 + 0.0 a_3_3 + 0.0 a_3_1 - b_1 -z_12_7 >= -1
1.0 a_0_3 + 1.0 a_0_1 + 0.5 a_1_3 + 0.5 a_1_1 + 0.0 a_2_3 + 0.0 a_2_1 + 1.0 a_3_3 + 1.0 a_3_1 - b_1 -z_13_7 >= -1
N_0_4 - 1.0 z_0_4 - 1.0 z_1_4 - 0.0 z_2_4 - 0.0 z_3_4 - 0.0 z_4_4 - 1.0 z_5_4 - 0.0 z_6_4 - 1.0 z_7_4 - 0.0 z_8_4 - 0.0 z_9_4 - 0.0 z_10_4 - 0.0 z_11_4 - 0.0 z_12_4 - 1.0 z_13_4 = 0
N_0_5 - 1.0 z_0_5 - 1.0 z_1_5 - 0.0 z_2_5 - 0.0 z_3_5 - 0.0 z_4_5 - 1.0 z_5_5 - 0.0 z_6_5 - 1.0 z_7_5 - 0.0 z_8_5 - 0.0 z_9_5 - 0.0 z_10_5 - 0.0 z_11_5 - 0.0 z_12_5 - 1.0 z_13_5 = 0
N_0_6 - 1.0 z_0_6 - 1.0 z_1_6 - 0.0 z_2_6 - 0.0 z_3_6 - 0.0 z_4_6 - 1.0 z_5_6 - 0.0 z_6_6 - 1.0 z_7_6 - 0.0 z_8_6 - 0.0 z_9_6 - 0.0 z_10_6 - 0.0 z_11_6 - 0.0 z_12_6 - 1.0 z_13_6 = 0
N_0_7 - 1.0 z_0_7 - 1.0 z_1_7 - 0.0 z_2_7 - 0.0 z_3_7 - 0.0 z_4_7 - 1.0 z_5_7 - 0.0 z_6_7 - 1.0 z_7_7 - 0.0 z_8_7 - 0.0 z_9_7 - 0.0 z_10_7 - 0.0 z_11_7 - 0.0 z_12_7 - 1.0 z_13_7 = 0
N_1_4 - 0.0 z_0_4 - 0.0 z_1_4 - 1.0 z_2_4 - 1.0 z_3_4 - 1.0 z_4_4 - 0.0 z_5_4 - 1.0 z_6_4 - 0.0 z_7_4 - 1.0 z_8_4 - 1.0 z_9_4 - 1.0 z_10_4 - 1.0 z_11_4 - 1.0 z_12_4 - 0.0 z_13_4 = 0
N_1_5 - 0.0 z_0_5 - 0.0 z_1_5 - 1.0 z_2_5 - 1.0 z_3_5 - 1.0 z_4_5 - 0.0 z_5_5 - 1.0 z_6_5 - 0.0 z_7_5 - 1.0 z_8_5 - 1.0 z_9_5 - 1.0 z_10_5 - 1.0 z_11_5 - 1.0 z_12_5 - 0.0 z_13_5 = 0
N_1_6 - 0.0 z_0_6 - 0.0 z_1_6 - 1.0 z_2_6 - 1.0 z_3_6 - 1.0 z_4_6 - 0.0 z_5_6 - 1.0 z_6_6 - 0.0 z_7_6 - 1.0 z_8_6 - 1.0 z_9_6 - 1.0 z_10_6 - 1.0 z_11_6 - 1.0 z_12_6 - 0.0 z_13_6 = 0
N_1_7 - 0.0 z_0_7 - 0.0 z_1_7 - 1.0 z_2_7 - 1.0 z_3_7 - 1.0 z_4_7 - 0.0 z_5_7 - 1.0 z_6_7 - 0.0 z_7_7 - 1.0 z_8_7 - 1.0 z_9_7 - 1.0 z_10_7 - 1.0 z_11_7 - 1.0 z_12_7 - 0.0 z_13_7 = 0
N_4 - z_0_4 - z_1_4 - z_2_4 - z_3_4 - z_4_4 - z_5_4 - z_6_4 - z_7_4 - z_8_4 - z_9_4 - z_10_4 - z_11_4 - z_12_4 - z_13_4 = 0
N_5 - z_0_5 - z_1_5 - z_2_5 - z_3_5 - z_4_5 - z_5_5 - z_6_5 - z_7_5 - z_8_5 - z_9_5 - z_10_5 - z_11_5 - z_12_5 - z_13_5 = 0
N_6 - z_0_6 - z_1_6 - z_2_6 - z_3_6 - z_4_6 - z_5_6 - z_6_6 - z_7_6 - z_8_6 - z_9_6 - z_10_6 - z_11_6 - z_12_6 - z_13_6 = 0
N_7 - z_0_7 - z_1_7 - z_2_7 - z_3_7 - z_4_7 - z_5_7 - z_6_7 - z_7_7 - z_8_7 - z_9_7 - z_10_7 - z_11_7 - z_12_7 - z_13_7 = 0
c_0_4 + c_1_4 - l_4 = 0
c_0_5 + c_1_5 - l_5 = 0
c_0_6 + c_1_6 - l_6 = 0
c_0_7 + c_1_7 - l_7 = 0
L_4 - N_4 + N_0_4 - 14 c_0_4 >= -14
L_4 - N_4 + N_0_4 - 14 c_0_4 <= 0
L_4 - N_4 + N_1_4 - 14 c_1_4 >= -14
L_4 - N_4 + N_1_4 - 14 c_1_4 <= 0
L_4 >= 0
L_5 - N_5 + N_0_5 - 14 c_0_5 >= -14
L_5 - N_5 + N_0_5 - 14 c_0_5 <= 0
L_5 - N_5 + N_1_5 - 14 c_1_5 >= -14
L_5 - N_5 + N_1_5 - 14 c_1_5 <= 0
L_5 >= 0
L_6 - N_6 + N_0_6 - 14 c_0_6 >= -14
L_6 - N_6 + N_0_6 - 14 c_0_6 <= 0
L_6 - N_6 + N_1_6 - 14 c_1_6 >= -14
L_6 - N_6 + N_1_6 - 14 c_1_6 <= 0
L_6 >= 0
L_7 - N_7 + N_0_7 - 14 c_0_7 >= -14
L_7 - N_7 + N_0_7 - 14 c_0_7 <= 0
L_7 - N_7 + N_1_7 - 14 c_1_7 >= -14
L_7 - N_7 + N_1_7 - 14 c_1_7 <= 0
L_7 >= 0

\-------------
\Variables:
\-------------
Binaries
a_0_1 a_0_2 a_0_3 a_1_1 a_1_2 a_1_3 a_2_1 a_2_2 a_2_3 a_3_1 a_3_2 a_3_3 c_0_4 c_0_5 c_0_6 c_0_7 c_1_4 c_1_5 c_1_6 c_1_7 d_1 d_2 d_3 l_4 l_5 l_6 l_7 z_0_4 z_0_5 z_0_6 z_0_7 z_10_4 z_10_5 z_10_6 z_10_7 z_11_4 z_11_5 z_11_6 z_11_7 z_12_4 z_12_5 z_12_6 z_12_7 z_13_4 z_13_5 z_13_6 z_13_7 z_1_4 z_1_5 z_1_6 z_1_7 z_2_4 z_2_5 z_2_6 z_2_7 z_3_4 z_3_5 z_3_6 z_3_7 z_4_4 z_4_5 z_4_6 z_4_7 z_5_4 z_5_5 z_5_6 z_5_7 z_6_4 z_6_5 z_6_6 z_6_7 z_7_4 z_7_5 z_7_6 z_7_7 z_8_4 z_8_5 z_8_6 z_8_7 z_9_4 z_9_5 z_9_6 z_9_7
Generals
N_0_4 N_0_5 N_0_6 N_0_7 N_1_4 N_1_5 N_1_6 N_1_7 N_4 N_5 N_6 N_7
End